
%    +-----------+
% 8  | | | | | | |
% 7  | | | | | | |
% 6  | | | | |3| |
% 5  | |1|1| | | |
% 4  | |1|1| | | |
% 3  | |2| | |4| |
% 2  | | | | | | |
% 1  | | | | | | |
%    +-----------+
n=6;
m=8;
h=2;
%maxT=45;
boxNumber=4;
boxSideLen = [2, 1, 1, 1];
boxStartX  = [2, 2, 5, 5];
boxStartY  = [4, 3, 6, 3];
